NAME : rand305546
COMMENT: random generated with id 305546
TYPE : TSP
DIMENSION : 6
EDGE_WEIGHT_TYPE : EUC_2D
NODE_COORD_SECTION
1 0.563092 1.705361
2 3.698828 3.732197
3 0.323253 4.829183
4 4.982273 3.263146
5 4.461790 4.252884
6 2.178791 1.384103
EOF
